p tw 35 3151 2 
1 3 
1 4 
1 5 
1 6 
1 7 
1 8 
1 9 
1 10 
1 11 
1 12 
1 13 
1 14 
1 15 
1 16 
1 17 
1 18 
1 19 
2 3 
2 4 
2 5 
2 6 
2 7 
2 8 
2 13 
2 14 
2 18 
2 20 
2 21 
2 22 
2 23 
2 25 
2 29 
2 31 
2 34 
3 4 
3 5 
3 6 
3 7 
3 9 
3 11 
3 15 
3 17 
3 20 
3 21 
3 24 
3 25 
3 26 
3 27 
3 30 
3 31 
4 5 
4 6 
4 7 
4 10 
4 13 
4 16 
4 17 
4 20 
4 23 
4 24 
4 27 
4 28 
4 29 
4 33 
4 35 
5 6 
5 7 
5 8 
5 10 
5 18 
5 19 
5 22 
5 24 
5 26 
5 28 
5 30 
5 31 
5 32 
5 35 
6 7 
6 9 
6 12 
6 14 
6 19 
6 23 
6 25 
6 27 
6 28 
6 30 
6 32 
6 33 
6 34 
7 11 
7 12 
7 15 
7 16 
7 21 
7 22 
7 26 
7 29 
7 32 
7 33 
7 34 
7 35 
8 9 
8 10 
8 11 
8 12 
8 13 
8 14 
8 19 
8 20 
8 21 
8 22 
8 23 
8 26 
8 28 
8 31 
8 35 
9 10 
9 11 
9 12 
9 13 
9 15 
9 19 
9 20 
9 23 
9 24 
9 25 
9 26 
9 27 
9 32 
9 34 
10 11 
10 12 
10 13 
10 16 
10 18 
10 20 
10 22 
10 24 
10 27 
10 28 
10 29 
10 30 
10 32 
11 12 
11 13 
11 16 
11 17 
11 21 
11 22 
11 26 
11 27 
11 30 
11 31 
11 33 
11 34 
12 13 
12 14 
12 15 
12 21 
12 25 
12 28 
12 29 
12 30 
12 32 
12 33 
12 35 
13 17 
13 18 
13 23 
13 24 
13 25 
13 29 
13 31 
13 33 
13 34 
13 35 
14 15 
14 16 
14 17 
14 18 
14 19 
14 20 
14 21 
14 22 
14 23 
14 25 
14 28 
14 30 
14 33 
15 16 
15 17 
15 18 
15 19 
15 20 
15 21 
15 24 
15 25 
15 26 
15 29 
15 32 
15 35 
16 17 
16 18 
16 19 
16 20 
16 22 
16 26 
16 27 
16 28 
16 29 
16 33 
16 34 
17 18 
17 19 
17 21 
17 23 
17 24 
17 27 
17 30 
17 31 
17 33 
17 35 
18 19 
18 22 
18 24 
18 25 
18 29 
18 30 
18 31 
18 32 
18 34 
19 23 
19 26 
19 27 
19 28 
19 31 
19 32 
19 34 
19 35 
20 21 
20 22 
20 23 
20 24 
20 25 
20 26 
20 27 
20 28 
20 29 
21 22 
21 23 
21 27 
21 29 
21 30 
21 31 
21 32 
21 35 
22 23 
22 24 
22 26 
22 30 
22 32 
22 33 
22 34 
23 24 
23 27 
23 32 
23 33 
23 34 
23 35 
24 25 
24 26 
24 30 
24 32 
24 33 
24 35 
25 26 
25 28 
25 29 
25 30 
25 31 
25 33 
25 34 
26 28 
26 31 
26 33 
26 34 
26 35 
27 28 
27 29 
27 30 
27 31 
27 32 
27 34 
28 29 
28 30 
28 31 
28 33 
28 35 
29 31 
29 32 
29 34 
29 35 
30 31 
30 32 
30 33 
31 34 
31 35 
32 34 
32 35 
33 34 
33 35 
